solution status: optimal solution found
objective value:                     111631.123765295
d11(0,0)                                            1 	(obj:0)
d11(1,1)                                            1 	(obj:0)
d11(1,2)                                            1 	(obj:0)
d11(2,3)                                            1 	(obj:0)
d11(2,5)                                            1 	(obj:0)
d11(3,7)                                            1 	(obj:0)
d11(3,8)                                            1 	(obj:0)
d11(3,9)                                            1 	(obj:0)
d11(3,10)                                           1 	(obj:0)
d11(3,11)                                           1 	(obj:0)
d11(3,12)                                           1 	(obj:0)
d11(3,13)                                           1 	(obj:0)
d11(3,14)                                           1 	(obj:0)
d12(2,4)                                            1 	(obj:0)
d12(2,6)                                            1 	(obj:0)
d21(3,7)                                            1 	(obj:0)
d21(3,9)                                            1 	(obj:0)
WB(2)                                3315.65537776224 	(obj:0)
y2(2,4)                              1286.42872285701 	(obj:0)
y2(2,6)                              1286.42872285701 	(obj:0)
STE(1,1)                             8484.75010111118 	(obj:0)
STE(0,0)                                        11025 	(obj:0)
STE(1,2)                                        10143 	(obj:0)
STE(2,3)                                         7497 	(obj:0)
STE(2,4)                             8824.85738782534 	(obj:0)
STE(2,5)                             9155.24989888882 	(obj:0)
STE(2,6)                             10483.1072867142 	(obj:0)
STE(3,7)                             4956.75010111118 	(obj:0)
STE(3,8)                                         6615 	(obj:0)
STE(3,9)                             6284.60748893653 	(obj:0)
STE(3,10)                            7942.85738782535 	(obj:0)
STE(3,11)                                        6615 	(obj:0)
STE(3,12)                            8273.24989888882 	(obj:0)
STE(3,13)                            7942.85738782534 	(obj:0)
STE(3,14)                            9601.10728671416 	(obj:0)
AVE(2)                               3315.65537776224 	(obj:0)
y1(1,1)                              1492.42490899994 	(obj:0)
y1(2,3)                              95.1750910000643 	(obj:0)
y1(2,5)                              95.1750910000631 	(obj:0)
y1(3,7)                              1492.42490899994 	(obj:0)
y1(3,9)                              1492.42490899994 	(obj:0)
y1(3,11)                             1492.42490899994 	(obj:0)
y1(3,13)                             1492.42490899994 	(obj:0)
AVE(3)                               3315.65799770399 	(obj:0)
WB(1)                                3248.33172520918 	(obj:0)
WG(3)                                3315.65799770399 	(obj:10)
BG(1)                                4196.29249897957 	(obj:10)
BG(2)                                2770.52737857153 	(obj:10)
BG(3)                                880.634501275575 	(obj:10)
AVE(1)                               3248.33172520918 	(obj:0)
